(set-info :smt-lib-version 2.6)
(set-logic QF_FP)
(set-option :produce-models true)
(set-info :source |Random FP created by PyMPF|)
(set-info :license |https://www.gnu.org/licenses/gpl-3.0.html|)
(set-info :category random)
(set-info :status sat)
(declare-const x Float32)
(assert (= x (fp #b0 #b10010101 #b10100101001000001101111)))
;; x should be Float32(0x4AD2906F [Rational(13799535, 2), 6899767.500000])

(declare-const y Float32)
(assert (= y ((_ to_fp 8 24) #x007FAF62)))
;; y should be Float32(0x007FAF62 [Rational(4183985, 356811923176489970264571492362373784095686656), 0.000000])

(declare-const z Float32)
(assert (= z (_ +oo 8 24)))
;; z should be Float32(+oo)

(declare-const result Float32)
(assert (= result (fp.fma RNA x y z)))
(assert (= result ((_ to_fp 8 24) #x7F800000)))
(check-sat)
(exit)
